&CONTROL
   calculation      = 'bands'
   outdir           = './tmp'
   prefix           = 'SiO2'
   pseudo_dir       = './pseudo'
/
&SYSTEM
   nbnd             = 100
   ecutwfc          = 60.0
   ntyp             = 2
   nat              = 18
   ibrav            = 0
/
&ELECTRONS
/
&IONS
/
&CELL
/

ATOMIC_SPECIES
Si 28.085 Si_ONCV_PBE_sr.upf
O 15.999 O_ONCV_PBE_sr.upf

K_POINTS automatic
12 12 12  0 0 0

CELL_PARAMETERS angstrom
9.83311562000000 0.00000000000000 0.00000000000000
-2.45827890500000 4.25786396263479 0.00000000000000
0.00000000000000 0.00000000000000 5.43162525000000

ATOMIC_POSITIONS angstrom
Si -1.1524367995 1.9960790893 1.8105417319 
Si 3.7641210105 1.9960790893 1.8105417319 
Si 1.3058421547 2.2617848734 0.0000000000 
Si 6.2223999647 2.2617848734 0.0000000000 
Si 2.3048735499 0.0000000000 3.6210835181 
Si 7.2214313599 0.0000000000 3.6210835181 
O -1.0874518033 3.1143711227 2.9755507718 
O 3.8291060067 3.1143711227 2.9755507718 
O 0.7825714566 3.6424392884 4.7860925037 
O 5.6991292666 3.6424392884 4.7860925037 
O 0.3048803468 1.7589175142 1.1650090399 
O 5.2214380584 1.7589175142 1.1650090399 
O 1.3708270525 1.1434928400 4.2666162101 
O 6.2873848625 1.1434928400 4.2666162101 
O 2.7631592026 2.4989464484 0.6455327463 
O 7.6797170126 2.4989464484 0.6455327463 
O 3.2408503616 0.6154246743 2.4560744782 
O 8.1574081716 0.6154246743 2.4560744782 

