--
&inputph
  prefix   = 'SiO2'
  outdir = './tmp'
  fildvscf = 'dvscf'
  ldisp    = .true.
  fildyn   = 'SiO2.dyn'
  nq1=2,
  nq2=2,
  nq3=2,
  tr2_ph   =  1.0d-6
 /
 