&INPUT
  fildyn = 'SiO2.dyn'
  zasr = 'crystal'
  flfrc = 'SiO2.fc'
/
